NAME : XML100_2362_25
DIMENSION : 101
NB_CLUSTERS : 19
CLUSTERING_ALG : DBSCAN
CLUSTERING_PARAMS : eps(74), minSamples(3)
CLUSTERS
1 0
2 1 5 19 38 45 59 70 81 91
3 6 11 22 25 30 31 41 43 54 63 66 69 72 80 99 100
4 7 14 18 20 21 27 39 40 44 50 52 68 73 79 82 92
5 8 24 28 71 76 93
6 2 9 12 23 26 29 35 46 48 51 56 57 60 74
7 3 10 34 49
8 13 33 64 85
9 16 61 96
10 36 42 55 83 86
11 17 95
12 15 53 75 77 78
13 58 65
14 37 90 94
15 47 87
16 32 67 88
17 84 98
18 62 89
19 4 97
EOF